Name:		mgval_0.45_2B
Optimal value:	314
#Vehicles:	3
Capacity:	120
Depot Node:	1
#Nodes:		24
#Edges:		12
#Arcs:		40
#Required N:	18
#Required E:	6
#Required A:	22

ReN.	DEMAND	S. COST
N2	6	6
N3	6	6
N4	13	13
N6	9	9
N7	2	2
N8	3	3
N9	6	6
N10	14	14
N11	10	10
N12	4	4
N13	3	3
N14	4	4
N15	8	8
N16	14	14
N17	5	5
N21	6	6
N23	15	15
N24	5	5

ReE.	FROM N.	TO N.	T. COST	DEMAND	S. COST
E7	14	18	2	5	5
E8	20	21	5	11	11
E9	13	17	1	6	6
E10	6	12	9	12	12
E11	20	23	4	7	7
E12	13	14	1	4	4

EDGE	FROM N.	TO N.	T. COST
NrE1	10	20	4
NrE2	16	17	3
NrE3	6	7	5
NrE4	4	5	8
NrE5	15	16	6
NrE6	11	15	3

ReA.	FROM N.	TO N.	T. COST	DEMAND	S. COST
A19	18	17	7	5	5
A20	10	11	11	6	6
A21	19	20	9	14	14
A22	12	16	8	4	4
A23	9	19	9	7	7
A24	22	19	5	4	4
A25	10	5	8	8	8
A26	10	9	8	6	6
A27	1	2	4	3	3
A28	22	23	9	6	6
A29	19	22	5	4	4
A30	19	9	9	8	8
A31	15	21	3	2	2
A32	1	3	5	8	8
A33	12	13	5	3	3
A34	9	3	4	11	11
A35	24	23	12	9	9
A36	5	10	8	7	7
A37	5	11	5	4	4
A38	11	10	11	7	7
A39	8	7	2	3	3
A40	11	12	4	3	3

ARC	FROM N.	TO N.	T. COST
NrA1	7	8	2
NrA2	17	18	7
NrA3	9	10	8
NrA4	3	4	3
NrA5	21	15	3
NrA6	4	2	2
NrA7	2	1	4
NrA8	8	14	3
NrA9	21	24	8
NrA10	2	4	2
NrA11	11	5	5
NrA12	13	12	5
NrA13	12	11	4
NrA14	16	12	8
NrA15	23	24	12
NrA16	23	22	9
NrA17	24	21	8
NrA18	14	8	3
